# opt=modredundant b3lyp/6-31g(d,p) scf=tight

Title Card Required

0 1
 C                  1.39817300    0.52720100    0.22441400
 H                  2.01440700    1.35294300   -0.16438900
 H                  1.44317500    0.57662300    1.32520700
 C                 -0.04224600    0.70264600   -0.23892700
 H                 -0.06319300    0.64168000   -1.33558100
 H                 -0.39046500    1.70533500    0.03570800
 C                 -1.00011300   -0.33618100    0.34929500
 H                 -0.65273900   -1.34722800    0.09797700
 H                 -1.00776200   -0.25692900    1.44251900
 O                  1.86718200   -0.73237700   -0.25133700
 H                  2.76112600   -0.86758100    0.08668800
 O                 -2.34813900   -0.12614100   -0.05961100
 H                 -2.39178000   -0.29869800   -1.00922800

10 1 4 7 S 60 6.0
12 7 4 1 F

