#p M062X/6-311++G(d,p)

SP

0 1
C	1.398173     0.527201     0.224414
H	2.014407     1.352943     -0.164389
H	1.443175     0.576623     1.325207
C	-0.042246     0.702646     -0.238927
H	-0.063193     0.641680     -1.335581
H	-0.390465     1.705335     0.035708
C	-1.000113     -0.336181     0.349295
H	-0.652739     -1.347228     0.097977
H	-1.007762     -0.256929     1.442519
O	1.867182     -0.732377     -0.251337
H	2.761126     -0.867581     0.086688
O	-2.348139     -0.126141     -0.059611
H	-2.391780     -0.298698     -1.009228

