#p M062X/6-311++G(d,p)

SP

0 1
C	1.395611     0.516543     0.233540
H	2.001841     1.377203     -0.089950
H	1.419396     0.496965     1.335784
C	-0.038622     0.690981     -0.249882
H	-0.045266     0.601207     -1.344372
H	-0.382864     1.703010     -0.005863
C	-1.010046     -0.320518     0.362640
H	-0.667369     -1.342476     0.148098
H	-1.025474     -0.204401     1.452383
O	1.901175     -0.698283     -0.316116
H	2.783069     -0.848831     0.046407
O	-2.353250     -0.115900     -0.062536
H	-2.390575     -0.314208     -1.007398

