#p M062X/6-311++G(d,p)

SP

0 1
C	1.393929     0.504534     0.242079
H	1.986684     1.396485     -0.014562
H	1.399263     0.415397     1.340940
C	-0.035037     0.677496     -0.260002
H	-0.028940     0.558151     -1.351195
H	-0.375267     1.697942     -0.047403
C	-1.021219     -0.304752     0.375815
H	-0.686545     -1.337002     0.198123
H	-1.043900     -0.152106     1.460860
O	1.938692     -0.659388     -0.376917
H	2.809089     -0.824885     0.006487
O	-2.359200     -0.102944     -0.066150
H	-2.389923     -0.327635     -1.005341

