#p M062X/6-311++G(d,p)

SP

0 1
C	1.392530     0.490057     0.250916
H	1.969683     1.409138     0.063511
H	1.380702     0.331632     1.341753
C	-0.031726     0.662446     -0.269936
H	-0.014218     0.511632     -1.356743
H	-0.366246     1.691299     -0.091365
C	-1.033783     -0.288060     0.388492
H	-0.707017     -1.329628     0.247993
H	-1.063004     -0.100208     1.467629
O	1.977417     -0.617537     -0.431390
H	2.840726     -0.792838     -0.036296
O	-2.365882     -0.088845     -0.069320
H	-2.391555     -0.337796     -1.002510

