#p M062X/6-311++G(d,p)

SP

0 1
C	1.391548     0.473963     0.258893
H	1.949400     1.416108     0.141915
H	1.365714     0.245724     1.337004
C	-0.028690     0.645077     -0.278874
H	-0.002411     0.459849     -1.359908
H	-0.357012     1.681396     -0.136850
C	-1.046895     -0.271961     0.401999
H	-0.732197     -1.321981     0.298278
H	-1.083009     -0.048830     1.474098
O	2.018250     -0.572471     -0.481349
H	2.877486     -0.751915     -0.079048
O	-2.373002     -0.072720     -0.072673
H	-2.391556     -0.340946     -1.000751

