#p M062X/6-311++G(d,p)

SP

0 1
C	1.390598     0.455444     0.266768
H	1.927512     1.415636     0.222832
H	1.351435     0.156938     1.327308
C	-0.025752     0.627440     -0.288175
H	0.007742     0.406505     -1.362047
H	-0.344823     1.670897     -0.184025
C	-1.060553     -0.254418     0.414168
H	-0.757882     -1.311508     0.346856
H	-1.100614     0.002988     1.478391
O	2.058391     -0.524950     -0.525739
H	2.917065     -0.703011     -0.121428
O	-2.380472     -0.055367     -0.075265
H	-2.395021     -0.345301     -0.996910

