#p M062X/6-311++G(d,p)

SP

0 1
C	1.389660     0.436055     0.274266
H	1.903370     1.409219     0.305522
H	1.340476     0.066249     1.311761
C	-0.022700     0.609067     -0.296320
H	0.017315     0.348324     -1.360834
H	-0.332248     1.658454     -0.234001
C	-1.073606     -0.236036     0.426555
H	-0.785118     -1.299279     0.394684
H	-1.118465     0.053608     1.482272
O	2.096814     -0.474136     -0.566583
H	2.957323     -0.647277     -0.163756
O	-2.387370     -0.035037     -0.078319
H	-2.397826     -0.347918     -0.992513

