#p M062X/6-311++G(d,p)

SP

0 1
C	1.388496     0.414470     0.280513
H	1.877029     1.394819     0.388747
H	1.330069     -0.026471     1.289560
C	-0.019992     0.589915     -0.305335
H	0.022634     0.287934     -1.358720
H	-0.317217     1.644171     -0.285824
C	-1.086474     -0.217371     0.438249
H	-0.811483     -1.284905     0.440738
H	-1.133105     0.104626     1.484500
O	2.134954     -0.421552     -0.602012
H	2.998956     -0.582864     -0.201553
O	-2.394604     -0.015433     -0.079067
H	-2.401637     -0.346048     -0.987061

