#p M062X/6-311++G(d,p)

SP

0 1
C	1.386841     0.391758     0.285771
H	1.848003     1.373649     0.471348
H	1.321792     -0.119285     1.261139
C	-0.016992     0.570152     -0.313966
H	0.026717     0.225361     -1.354090
H	-0.299963     1.627941     -0.338664
C	-1.098120     -0.197963     0.449584
H	-0.838093     -1.268916     0.485371
H	-1.145141     0.154569     1.485988
O	2.170661     -0.366503     -0.633487
H	3.038744     -0.512281     -0.235756
O	-2.400883     0.006058     -0.079739
H	-2.405939     -0.343248     -0.980765

