#p M062X/6-311++G(d,p)

SP

0 1
C	1.385275     0.368253     0.290079
H	1.816935     1.345999     0.552042
H	1.317295     -0.210890     1.226533
C	-0.013641     0.549631     -0.321893
H	0.029331     0.161578     -1.346845
H	-0.281165     1.609144     -0.391377
C	-1.109279     -0.178365     0.460718
H	-0.864951     -1.251539     0.528272
H	-1.156043     0.204104     1.486543
O	2.204210     -0.308795     -0.661324
H	3.076086     -0.437447     -0.265850
O	-2.406525     0.028679     -0.080230
H	-2.409904     -0.339059     -0.973934

