#p M062X/6-311++G(d,p)

SP

0 1
C	1.383643     0.343928     0.292871
H	1.783676     1.312236     0.629373
H	1.315676     -0.300101     1.186447
C	-0.010281     0.527423     -0.329190
H	0.029805     0.097384     -1.337719
H	-0.260333     1.587192     -0.442761
C	-1.119187     -0.158593     0.471435
H	-0.891544     -1.233050     0.571261
H	-1.164707     0.252751     1.486308
O	2.234798     -0.248899     -0.685301
H	3.109934     -0.358507     -0.291301
O	-2.410955     0.051798     -0.080914
H	-2.412900     -0.332270     -0.967773

