#p M062X/6-311++G(d,p)

SP

0 1
C	1.381198     0.318983     0.294625
H	1.749234     1.271862     0.703843
H	1.315049     -0.386914     1.140434
C	-0.006208     0.506304     -0.337974
H	0.029715     0.036564     -1.329014
H	-0.238072     1.564789     -0.492479
C	-1.127400     -0.138140     0.480922
H	-0.915639     -1.212587     0.610423
H	-1.169068     0.301883     1.483841
O	2.263072     -0.187236     -0.704761
H	3.139434     -0.279652     -0.309103
O	-2.414914     0.074741     -0.080042
H	-2.418775     -0.329305     -0.957980

