#p M062X/6-311++G(d,p)

SP

0 1
C	1.379804     0.292941     0.295107
H	1.714040     1.226282     0.772862
H	1.320050     -0.469543     1.091132
C	-0.002133     0.482684     -0.344599
H	0.027895     -0.023125     -1.318454
H	-0.213970     1.538857     -0.538661
C	-1.135257     -0.118148     0.490036
H	-0.942109     -1.191804     0.651172
H	-1.173392     0.350501     1.480200
O	2.288136     -0.123741     -0.720989
H	3.165622     -0.197662     -0.324084
O	-2.417583     0.099148     -0.081308
H	-2.423477     -0.325095     -0.949681

