#p M062X/6-311++G(d,p)

SP

0 1
C	1.378132     0.266790     0.294293
H	1.678360     1.176156     0.836791
H	1.328495     -0.547705     1.037929
C	0.002003     0.458756     -0.351949
H	0.024397     -0.079874     -1.308593
H	-0.189864     1.511597     -0.581409
C	-1.141859     -0.098153     0.498319
H	-0.966962     -1.169856     0.690493
H	-1.174396     0.398859     1.474793
O	2.310265     -0.058756     -0.733221
H	3.186908     -0.117724     -0.332120
O	-2.419440     0.122628     -0.082102
H	-2.428415     -0.321425     -0.940489

