#p M062X/6-311++G(d,p)

SP

0 1
C	1.376939     0.240586     0.292030
H	1.642152     1.122061     0.895875
H	1.339934     -0.620997     0.981366
C	0.005863     0.434371     -0.359541
H	0.019494     -0.132871     -1.299980
H	-0.165955     1.483437     -0.620410
C	-1.146955     -0.078652     0.505967
H	-0.990629     -1.147049     0.729507
H	-1.172791     0.447616     1.467007
O	2.329456     0.008290     -0.741016
H	3.204158     -0.041545     -0.334763
O	-2.420622     0.145379     -0.082978
H	-2.433417     -0.319333     -0.930331

