#p M062X/6-311++G(d,p)

SP

0 1
C	1.375634     0.214648     0.289123
H	1.607311     1.064474     0.949756
H	1.355939     -0.689440     0.922173
C	0.009519     0.409541     -0.366804
H	0.013633     -0.181851     -1.292660
H	-0.142282     1.454699     -0.654832
C	-1.151515     -0.059112     0.512241
H	-1.013531     -1.122747     0.768808
H	-1.169558     0.496199     1.457103
O	2.345155     0.076952     -0.745316
H	3.216898     0.030448     -0.332429
O	-2.420399     0.167774     -0.085236
H	-2.439176     -0.320292     -0.919192

