#p M062X/6-311++G(d,p)

SP

0 1
C	1.374944     0.189843     0.284541
H	1.571134     1.004575     0.999460
H	1.374580     -0.751577     0.861004
C	0.012689     0.385642     -0.375505
H	0.006194     -0.226414     -1.287904
H	-0.119850     1.426821     -0.686848
C	-1.153760     -0.039805     0.517422
H	-1.033409     -1.097365     0.805771
H	-1.163015     0.544189     1.444806
O	2.358344     0.148343     -0.743594
H	3.226510     0.092903     -0.324551
O	-2.420000     0.188836     -0.086805
H	-2.446734     -0.324696     -0.905062

