#p M062X/6-311++G(d,p)

SP

0 1
C	1.374907     0.165284     0.279720
H	1.537209     0.941639     1.044469
H	1.397686     -0.808813     0.797772
C	0.015783     0.360888     -0.383239
H	-0.002635     -0.269270     -1.283231
H	-0.097843     1.397742     -0.716357
C	-1.156493     -0.020658     0.521810
H	-1.053440     -1.070705     0.842843
H	-1.156013     0.591591     1.430757
O	2.368879     0.220148     -0.737774
H	3.233878     0.153481     -0.314018
O	-2.419342     0.208974     -0.089010
H	-2.454951     -0.329008     -0.891007

