#p M062X/6-311++G(d,p)

SP

0 1
C	1.374709     0.141273     0.273579
H	1.502517     0.875638     1.085481
H	1.422526     -0.860688     0.733018
C	0.018279     0.336691     -0.392710
H	-0.013526     -0.309365     -1.280875
H	-0.077345     1.369265     -0.744676
C	-1.157300     -0.001651     0.525015
H	-1.070240     -1.042708     0.878727
H	-1.145130     0.638587     1.414252
O	2.376855     0.292206     -0.725544
H	3.238875     0.209128     -0.298735
O	-2.418143     0.227928     -0.090353
H	-2.464452     -0.335012     -0.874444

