#p M062X/6-311++G(d,p)

SP

0 1
C	1.374900     0.118219     0.267167
H	1.469378     0.806909     1.122958
H	1.450349     -0.907036     0.667026
C	0.020377     0.312997     -0.402337
H	-0.025191     -0.347351     -1.279133
H	-0.057998     1.341025     -0.771899
C	-1.157482     0.017431     0.527121
H	-1.085109     -1.013411     0.912910
H	-1.133006     0.684844     1.395648
O	2.381879     0.364872     -0.707488
H	3.241835     0.259576     -0.281431
O	-2.416591     0.246372     -0.092216
H	-2.475717     -0.343154     -0.855593

