#p M062X/6-311++G(d,p)

SP

0 1
C	1.375222     0.094984     0.259977
H	1.437366     0.735589     1.155588
H	1.480965     -0.948412     0.600631
C	0.021730     0.288345     -0.411925
H	-0.039401     -0.385858     -1.277070
H	-0.040587     1.311069     -0.799320
C	-1.156884     0.036003     0.529245
H	-1.098179     -0.983247     0.947313
H	-1.119310     0.729795     1.376254
O	2.383599     0.435418     -0.684439
H	3.242636     0.310685     -0.261815
O	-2.415017     0.263405     -0.092691
H	-2.484515     -0.346482     -0.839013

