#p M062X/6-311++G(d,p)

SP

0 1
C	1.376634     0.072420     0.253484
H	1.409902     0.659984     1.186526
H	1.514883     -0.985016     0.532687
C	0.023052     0.264525     -0.420601
H	-0.051820     -0.422971     -1.273839
H	-0.022982     1.281516     -0.824981
C	-1.156682     0.055331     0.529654
H	-1.112026     -0.951140     0.979248
H	-1.105958     0.774631     1.354278
O	2.381401     0.505863     -0.656289
H	3.241584     0.359172     -0.243063
O	-2.413205     0.281682     -0.096061
H	-2.497158     -0.354704     -0.818308

