#p M062X/6-311++G(d,p)

SP

0 1
C	1.378001     0.049246     0.245022
H	1.383030     0.580830     1.211951
H	1.549268     -1.017381     0.462842
C	0.024100     0.240393     -0.430546
H	-0.068259     -0.461101     -1.270402
H	-0.007956     1.250249     -0.854145
C	-1.154634     0.074839     0.529739
H	-1.122564     -0.918022     1.010157
H	-1.089530     0.818147     1.331566
O	2.377519     0.571869     -0.622901
H	3.238764     0.411913     -0.216726
O	-2.410536     0.299969     -0.097377
H	-2.509578     -0.359658     -0.796443

