#p M062X/6-311++G(d,p)

SP

0 1
C	1.379964     0.025568     0.236489
H	1.360539     0.497321     1.233987
H	1.585884     -1.045459     0.391623
C	0.024355     0.215872     -0.440063
H	-0.084662     -0.500776     -1.264737
H	0.007307     1.217325     -0.883656
C	-1.152539     0.094590     0.529157
H	-1.132803     -0.883302     1.040121
H	-1.071893     0.861071     1.307402
O	2.368988     0.634779     -0.586380
H	3.232643     0.468338     -0.187873
O	-2.408244     0.318562     -0.098760
H	-2.521915     -0.362599     -0.774575

