#p M062X/6-311++G(d,p)

SP

0 1
C	1.381939     0.002284     0.226169
H	1.340542     0.409899     1.251009
H	1.622225     -1.068774     0.317412
C	0.024187     0.191685     -0.450580
H	-0.102927     -0.541828     -1.257381
H	0.019068     1.182616     -0.917463
C	-1.148959     0.114873     0.528129
H	-1.139149     -0.847360     1.068454
H	-1.051672     0.903288     1.282068
O	2.358342     0.693749     -0.545467
H	3.223660     0.527085     -0.150441
O	-2.405200     0.337435     -0.098495
H	-2.534430     -0.363658     -0.750678

