#p M062X/6-311++G(d,p)

SP

0 1
C	1.384175     -0.020925     0.215218
H	1.323562     0.320267     1.263222
H	1.660238     -1.086493     0.242238
C	0.023350     0.167709     -0.461209
H	-0.122339     -0.584379     -1.247365
H	0.031116     1.146002     -0.953375
C	-1.144377     0.135577     0.526579
H	-1.143182     -0.810775     1.094379
H	-1.030551     0.943978     1.256607
O	2.343809     0.749352     -0.501725
H	3.210677     0.586645     -0.108218
O	-2.402083     0.356873     -0.097515
H	-2.546768     -0.362538     -0.726101

