#p M062X/6-311++G(d,p)

SP

0 1
C	1.386877     -0.043278     0.202765
H	1.310872     0.226390     1.270421
H	1.697958     -1.098671     0.163352
C	0.022464     0.144064     -0.471562
H	-0.141982     -0.628410     -1.233809
H	0.039020     1.107101     -0.992264
C	-1.139031     0.156695     0.524842
H	-1.145387     -0.772513     1.120091
H	-1.007394     0.984561     1.229791
O	2.326415     0.801098     -0.455001
H	3.193711     0.647472     -0.058649
O	-2.398030     0.376400     -0.096000
H	-2.557868     -0.359614     -0.701242

