#p M062X/6-311++G(d,p)

SP

0 1
C	1.389553     -0.065517     0.189324
H	1.301691     0.130644     1.271908
H	1.736130     -1.104902     0.082865
C	0.020903     0.120764     -0.482065
H	-0.162296     -0.674069     -1.216467
H	0.047196     1.065466     -1.034488
C	-1.131844     0.178354     0.522520
H	-1.144446     -0.733872     1.143534
H	-0.983242     1.023774     1.202749
O	2.305275     0.848881     -0.406604
H	3.171104     0.709107     -0.001774
O	-2.393694     0.396799     -0.093213
H	-2.568704     -0.354136     -0.675556

