#p M062X/6-311++G(d,p)

SP

0 1
C	1.392801     -0.086613     0.174685
H	1.296842     0.032442     1.267696
H	1.774284     -1.104373     0.000331
C	0.019632     0.097934     -0.491097
H	-0.182926     -0.720173     -1.194460
H	0.053261     1.021329     -1.077630
C	-1.124360     0.200483     0.520377
H	-1.142564     -0.694004     1.166421
H	-0.958546     1.062534     1.175486
O	2.280677     0.892835     -0.356578
H	3.143633     0.769117     0.059484
O	-2.388180     0.417178     -0.091036
H	-2.576930     -0.347396     -0.650945

