#p M062X/6-311++G(d,p)

SP

0 1
C	1.395723     -0.106737     0.159540
H	1.295313     -0.065642     1.257647
H	1.811568     -1.096736     -0.082579
C	0.017915     0.075448     -0.499690
H	-0.202420     -0.766282     -1.169276
H	0.057850     0.975239     -1.121086
C	-1.115565     0.222677     0.517979
H	-1.137978     -0.653457     1.188419
H	-0.932983     1.100545     1.147280
O	2.252417     0.933204     -0.304577
H	3.111159     0.825104     0.124384
O	-2.382301     0.437102     -0.087997
H	-2.583073     -0.339174     -0.627309

