#p M062X/6-311++G(d,p)

SP

0 1
C	1.399177     -0.125556     0.143539
H	1.299401     -0.163644     1.241691
H	1.847821     -1.082051     -0.165840
C	0.016706     0.053713     -0.506283
H	-0.220840     -0.811378     -1.139570
H	0.061322     0.927497     -1.163202
C	-1.106532     0.245248     0.515672
H	-1.132729     -0.612262     1.209572
H	-0.909450     1.138188     1.118650
O	2.221125     0.969728     -0.251263
H	3.074848     0.876030     0.190843
O	-2.375573     0.456664     -0.086402
H	-2.587652     -0.330883     -0.604670

