#p M062X/6-311++G(d,p)

SP

0 1
C	1.401672     -0.142437     0.127343
H	1.303220     -0.259665     1.219776
H	1.881890     -1.059552     -0.247116
C	0.015741     0.032776     -0.513988
H	-0.236581     -0.854596     -1.110301
H	0.062942     0.879327     -1.205344
C	-1.095844     0.267650     0.511688
H	-1.123798     -0.569731     1.229437
H	-0.883167     1.175272     1.086912
O	2.187416     1.002712     -0.194006
H	3.035661     0.919319     0.260428
O	-2.368247     0.475209     -0.084595
H	-2.593279     -0.324992     -0.577498

