#p M062X/6-311++G(d,p)

SP

0 1
C	1.404196     -0.158215     0.110421
H	1.310534     -0.352709     1.192066
H	1.914190     -1.031173     -0.325768
C	0.014747     0.012000     -0.520566
H	-0.251541     -0.896504     -1.078275
H	0.062772     0.830249     -1.245146
C	-1.084351     0.289862     0.507922
H	-1.112606     -0.526919     1.249015
H	-0.857390     1.211516     1.054223
O	2.150437     1.030946     -0.136117
H	2.992821     0.957381     0.330560
O	-2.360428     0.492535     -0.082172
H	-2.595756     -0.317675     -0.553428

