#p M062X/6-311++G(d,p)

SP

0 1
C	1.406189     -0.172059     0.093910
H	1.319461     -0.441980     1.159639
H	1.944037     -0.995775     -0.400835
C	0.013900     -0.008244     -0.526723
H	-0.263537     -0.935619     -1.047526
H	0.060997     0.781957     -1.282063
C	-1.072293     0.311699     0.502885
H	-1.100521     -0.482658     1.267869
H	-0.831083     1.247053     1.018754
O	2.111539     1.055230     -0.075115
H	2.949959     0.986715     0.399222
O	-2.352458     0.508236     -0.080863
H	-2.598564     -0.313263     -0.526419

