#p M062X/6-311++G(d,p)

SP

0 1
C	1.408257     -0.184599     0.077564
H	1.330648     -0.526436     1.123036
H	1.972112     -0.955574     -0.470674
C	0.013395     -0.028097     -0.532984
H	-0.273993     -0.972050     -1.017899
H	0.058271     0.735463     -1.315543
C	-1.059755     0.333140     0.496737
H	-1.086554     -0.437805     1.285390
H	-0.805507     1.281513     0.980931
O	2.070167     1.074674     -0.012013
H	2.906672     1.009049     0.465897
O	-2.343965     0.522614     -0.080859
H	-2.602122     -0.310601     -0.496849

