#p M062X/6-311++G(d,p)

SP

0 1
C	1.410014     -0.195136     0.061699
H	1.343681     -0.606080     1.082800
H	1.997882     -0.909903     -0.535456
C	0.012543     -0.047533     -0.538766
H	-0.282142     -1.006255     -0.989697
H	0.052954     0.690155     -1.346345
C	-1.047194     0.353998     0.489675
H	-1.071499     -0.391770     1.302279
H	-0.780296     1.314893     0.940387
O	2.027799     1.089389     0.053583
H	2.865072     1.023866     0.529969
O	-2.336029     0.535043     -0.081042
H	-2.605159     -0.309373     -0.466350

