#p M062X/6-311++G(d,p)

SP

0 1
C	1.411826     -0.204187     0.046796
H	1.359118     -0.680244     1.039994
H	2.021753     -0.860064     -0.594371
C	0.011385     -0.066699     -0.544098
H	-0.289931     -1.038057     -0.962663
H	0.045968     0.646886     -1.373602
C	-1.034816     0.374274     0.481962
H	-1.055785     -0.345115     1.318245
H	-0.756464     1.346792     0.898392
O	1.983943     1.098943     0.121349
H	2.825907     1.032384     0.589053
O	-2.328236     0.545648     -0.082197
H	-2.607042     -0.309268     -0.436125

