#p M062X/6-311++G(d,p)

SP

0 1
C	1.413963     -0.210808     0.032521
H	1.376710     -0.749559     0.994158
H	2.043206     -0.805508     -0.648438
C	0.009953     -0.084665     -0.548061
H	-0.295430     -1.067861     -0.934796
H	0.035766     0.604807     -1.398501
C	-1.023717     0.394163     0.473676
H	-1.040447     -0.297634     1.333121
H	-0.735998     1.377678     0.854981
O	1.941722     1.103071     0.191822
H	2.792218     1.034060     0.643278
O	-2.321548     0.554125     -0.084580
H	-2.608772     -0.310575     -0.406446

