#p M062X/6-311++G(d,p)

SP

0 1
C	1.416333     -0.216700     0.019836
H	1.397784     -0.814279     0.946805
H	2.063224     -0.747535     -0.696406
C	0.008489     -0.102345     -0.551411
H	-0.301773     -1.094965     -0.909194
H	0.025797     0.564506     -1.420262
C	-1.013175     0.413495     0.464326
H	-1.025897     -0.249621     1.346204
H	-0.717089     1.406839     0.810443
O	1.898738     1.101299     0.264445
H	2.761524     1.032284     0.691752
O	-2.315022     0.561287     -0.089026
H	-2.611305     -0.312973     -0.374776

