#p M062X/6-311++G(d,p)

SP

0 1
C	1.419590     -0.220796     0.008060
H	1.421003     -0.874772     0.896440
H	2.080554     -0.685634     -0.740207
C	0.006601     -0.118842     -0.553081
H	-0.306703     -1.120559     -0.880988
H	0.012875     0.525386     -1.439260
C	-1.004547     0.432463     0.454832
H	-1.013143     -0.200543     1.358677
H	-0.702633     1.435099     0.765657
O	1.859280     1.092979     0.339160
H	2.737329     1.026427     0.734442
O	-2.309812     0.566276     -0.094805
H	-2.612769     -0.316189     -0.346193

