#p M062X/6-311++G(d,p)

SP

0 1
C	1.423105     -0.223980     -0.003629
H	1.449599     -0.930901     0.843196
H	2.095392     -0.621392     -0.780117
C	0.004456     -0.135048     -0.553397
H	-0.313078     -1.144025     -0.853336
H	-0.000021     0.485886     -1.456549
C	-0.996476     0.451465     0.444985
H	-1.000463     -0.150266     1.369809
H	-0.689952     1.462720     0.718956
O	1.821598     1.078567     0.412437
H	2.712684     1.018052     0.778257
O	-2.305544     0.570010     -0.100541
H	-2.613674     -0.319795     -0.317335

