#p M062X/6-311++G(d,p)

SP

0 1
C	1.427789     -0.225907     -0.015189
H	1.479372     -0.982442     0.786266
H	2.108554     -0.553352     -0.816146
C	0.002127     -0.150314     -0.553686
H	-0.318822     -1.166366     -0.823496
H	-0.014985     0.446625     -1.472835
C	-0.989610     0.470336     0.433874
H	-0.989316     -0.098577     1.379073
H	-0.679528     1.489228     0.671405
O	1.787988     1.057857     0.485684
H	2.691074     1.006415     0.822155
O	-2.301796     0.572164     -0.108338
H	-2.615221     -0.324376     -0.286033

