#p M062X/6-311++G(d,p)

SP

0 1
C	1.432970     -0.226545     -0.026676
H	1.513610     -1.029029     0.726114
H	2.118408     -0.482878     -0.849024
C	-0.000420     -0.164851     -0.552165
H	-0.325712     -1.186736     -0.791840
H	-0.029967     0.406606     -1.487284
C	-0.983978     0.489434     0.422448
H	-0.979029     -0.045542     1.386907
H	-0.672446     1.515414     0.622810
O	1.758206     1.031628     0.556703
H	2.671079     0.990910     0.867144
O	-2.299277     0.572531     -0.116563
H	-2.615818     -0.329649     -0.255839

