#p M062X/6-311++G(d,p)

SP

0 1
C	1.438598     -0.225876     -0.038460
H	1.550991     -1.070522     0.662029
H	2.125770     -0.408688     -0.878539
C	-0.003432     -0.178808     -0.550125
H	-0.333113     -1.206164     -0.756833
H	-0.046500     0.364524     -1.501386
C	-0.979029     0.508676     0.410437
H	-0.968431     0.008869     1.393029
H	-0.666855     1.540895     0.572784
O	1.731483     1.000560     0.624826
H	2.651192     0.970818     0.915630
O	-2.297628     0.571809     -0.123940
H	-2.615419     -0.334798     -0.226717

