#p M062X/6-311++G(d,p)

SP

0 1
C	1.444562     -0.224145     -0.049817
H	1.591922     -1.107118     0.594203
H	2.129336     -0.330842     -0.904576
C	-0.006365     -0.192090     -0.547050
H	-0.341110     -1.223945     -0.718691
H	-0.062065     0.320743     -1.514381
C	-0.975093     0.527950     0.397419
H	-0.958542     0.064355     1.396944
H	-0.663803     1.565615     0.521389
O	1.707902     0.964774     0.690712
H	2.632785     0.946160     0.965546
O	-2.296917     0.569900     -0.131865
H	-2.614987     -0.340064     -0.197097

