#p M062X/6-311++G(d,p)

SP

0 1
C	1.450595     -0.220712     -0.061243
H	1.634309     -1.137777     0.522360
H	2.130250     -0.249292     -0.926051
C	-0.009302     -0.204333     -0.543444
H	-0.348712     -1.240169     -0.676412
H	-0.078884     0.274025     -1.527267
C	-0.971804     0.547471     0.383572
H	-0.948561     0.120383     1.398328
H	-0.662727     1.589648     0.469010
O	1.687383     0.924941     0.753556
H	2.615481     0.915337     1.017666
O	-2.296743     0.567020     -0.139696
H	-2.613661     -0.345248     -0.167645

