#p M062X/6-311++G(d,p)

SP

0 1
C	1.456324     -0.216678     -0.071292
H	1.678013     -1.163204     0.447641
H	2.126314     -0.164461     -0.942249
C	-0.011868     -0.216375     -0.539412
H	-0.356425     -1.254736     -0.631598
H	-0.092349     0.225799     -1.538816
C	-0.969166     0.566388     0.368244
H	-0.938731     0.175819     1.396707
H	-0.663193     1.612050     0.415970
O	1.668768     0.880350     0.815035
H	2.600103     0.882026     1.067610
O	-2.297211     0.563673     -0.148049
H	-2.612954     -0.349357     -0.137055

