#p M062X/6-311++G(d,p)

SP

0 1
C	1.461379     -0.211143     -0.081098
H	1.721634     -1.182289     0.368952
H	2.119796     -0.076520     -0.952122
C	-0.013978     -0.227618     -0.535177
H	-0.362819     -1.267484     -0.583532
H	-0.105694     0.174040     -1.550381
C	-0.966492     0.585127     0.351868
H	-0.928094     0.230702     1.392210
H	-0.664727     1.633352     0.361985
O	1.651576     0.832061     0.873318
H	2.584888     0.843432     1.118129
O	-2.297551     0.559823     -0.156345
H	-2.612292     -0.352190     -0.105072

