#p M062X/6-311++G(d,p)

SP

0 1
C	1.465317     -0.204826     -0.089380
H	1.764752     -1.195032     0.287984
H	2.106998     0.013302     -0.955940
C	-0.016177     -0.238693     -0.530107
H	-0.368621     -1.278526     -0.532430
H	-0.116516     0.120330     -1.559968
C	-0.964246     0.603165     0.334926
H	-0.916703     0.284711     1.385653
H	-0.666987     1.652820     0.307611
O	1.636494     0.779467     0.929620
H	2.571994     0.802732     1.165031
O	-2.298521     0.556140     -0.163421
H	-2.610158     -0.354296     -0.076845

