#p M062X/6-311++G(d,p)

SP

0 1
C	1.468344     -0.197422     -0.097488
H	1.806558     -1.200334     0.204958
H	2.090818     0.103774     -0.953381
C	-0.017633     -0.249261     -0.524599
H	-0.372601     -1.287475     -0.479985
H	-0.125506     0.065011     -1.568019
C	-0.961768     0.620612     0.317058
H	-0.904701     0.338153     1.376760
H	-0.669947     1.670631     0.251940
O	1.622213     0.723554     0.981927
H	2.558976     0.757498     1.210878
O	-2.299269     0.551895     -0.170387
H	-2.607858     -0.355344     -0.046928

