#p M062X/6-311++G(d,p)

SP

0 1
C	1.470196     -0.189106     -0.104463
H	1.846358     -1.198452     0.121226
H	2.069685     0.193821     -0.944190
C	-0.018616     -0.259519     -0.518707
H	-0.374404     -1.294688     -0.426871
H	-0.131575     0.009136     -1.573953
C	-0.959453     0.637029     0.298204
H	-0.892785     0.390285     1.365504
H	-0.673422     1.686248     0.195679
O	1.609781     0.663864     1.031397
H	2.547810     0.710207     1.252903
O	-2.300036     0.547372     -0.177475
H	-2.605913     -0.354906     -0.016519

