#p M062X/6-311++G(d,p)

SP

0 1
C	1.471049     -0.179457     -0.111075
H	1.883444     -1.188785     0.037171
H	2.044695     0.282334     -0.929431
C	-0.018865     -0.269150     -0.511942
H	-0.372832     -1.300051     -0.372976
H	-0.136779     -0.047059     -1.577302
C	-0.957254     0.652802     0.278712
H	-0.881295     0.442561     1.352541
H	-0.677514     1.700004     0.138143
O	1.599262     0.601798     1.076354
H	2.537839     0.658160     1.293246
O	-2.300907     0.542157     -0.184199
H	-2.603219     -0.354022     0.013494

