#p M062X/6-311++G(d,p)

SP

0 1
C	1.470730     -0.168648     -0.116592
H	1.917858     -1.171507     -0.045217
H	2.015590     0.368533     -0.908686
C	-0.018701     -0.278903     -0.504893
H	-0.369182     -1.304290     -0.320827
H	-0.139397     -0.102024     -1.578329
C	-0.955133     0.667276     0.258237
H	-0.870092     0.493826     1.337440
H	-0.681111     1.710826     0.079393
O	1.590459     0.537546     1.117548
H	2.529369     0.603830     1.330297
O	-2.301757     0.536351     -0.190878
H	-2.601007     -0.351522     0.045242

