#p M062X/6-311++G(d,p)

SP

0 1
C	1.469700     -0.156636     -0.121696
H	1.948755     -1.147194     -0.125389
H	1.984407     0.451335     -0.882814
C	-0.017976     -0.288272     -0.497262
H	-0.362125     -1.307345     -0.269799
H	-0.141508     -0.155409     -1.576858
C	-0.953191     0.680725     0.237309
H	-0.859125     0.544931     1.320833
H	-0.684791     1.718965     0.019579
O	1.582965     0.471490     1.154121
H	2.521748     0.546769     1.364549
O	-2.302731     0.529999     -0.196981
H	-2.598500     -0.348066     0.077143

