#p M062X/6-311++G(d,p)

SP

0 1
C	1.467560     -0.143661     -0.125301
H	1.976432     -1.116380     -0.201802
H	1.950315     0.529943     -0.851922
C	-0.017384     -0.297747     -0.488781
H	-0.353741     -1.309933     -0.221259
H	-0.142102     -0.205998     -1.572677
C	-0.951695     0.692908     0.216183
H	-0.848816     0.595488     1.302909
H	-0.688223     1.723894     -0.040965
O	1.578209     0.403778     1.186983
H	2.516869     0.489316     1.394165
O	-2.304030     0.523587     -0.202289
H	-2.595768     -0.343902     0.107491

