#p M062X/6-311++G(d,p)

SP

0 1
C	1.465473     -0.130036     -0.128231
H	2.000952     -1.080293     -0.275052
H	1.916167     0.604346     -0.815999
C	-0.016320     -0.306591     -0.479733
H	-0.341975     -1.311526     -0.174136
H	-0.142846     -0.253994     -1.566284
C	-0.950969     0.703913     0.194683
H	-0.840279     0.645531     1.283421
H	-0.692128     1.725981     -0.101861
O	1.575637     0.333738     1.215542
H	2.513735     0.431655     1.419905
O	-2.305685     0.516557     -0.208049
H	-2.594135     -0.337988     0.138530

