#p M062X/6-311++G(d,p)

SP

0 1
C	1.462676     -0.116295     -0.129315
H	2.022955     -1.039053     -0.343978
H	1.879652     0.674159     -0.775398
C	-0.015434     -0.315796     -0.469816
H	-0.330519     -1.312978     -0.129729
H	-0.142530     -0.299017     -1.557706
C	-0.950640     0.713617     0.173136
H	-0.832959     0.694504     1.262697
H	-0.695428     1.724908     -0.162395
O	1.576542     0.261746     1.240462
H	2.513610     0.376486     1.440786
O	-2.307522     0.509821     -0.213711
H	-2.592778     -0.330809     0.167702

