#p M062X/6-311++G(d,p)

SP

0 1
C	1.460106     -0.102394     -0.129432
H	2.041685     -0.994167     -0.409491
H	1.844693     0.738853     -0.730056
C	-0.014553     -0.324286     -0.459110
H	-0.317200     -1.313408     -0.086340
H	-0.143157     -0.341563     -1.547095
C	-0.951323     0.722419     0.151602
H	-0.827349     0.742460     1.240781
H	-0.699580     1.721468     -0.222023
O	1.580688     0.187481     1.260970
H	2.515674     0.323859     1.457548
O	-2.309843     0.503041     -0.219824
H	-2.592216     -0.322470     0.195206

