#p M062X/6-311++G(d,p)

SP

0 1
C	1.457497     -0.089157     -0.127859
H	2.057755     -0.945777     -0.471443
H	1.809688     0.798382     -0.679950
C	-0.013799     -0.332561     -0.447466
H	-0.304848     -1.313080     -0.044737
H	-0.143496     -0.381839     -1.534662
C	-0.952678     0.730227     0.130121
H	-0.823730     0.788839     1.217829
H	-0.703994     1.715776     -0.280084
O	1.589534     0.110717     1.277301
H	2.520669     0.276018     1.470010
O	-2.312350     0.496397     -0.226944
H	-2.592620     -0.312648     0.220619

