#p M062X/6-311++G(d,p)

SP

0 1
C	1.455021     -0.076103     -0.125172
H	2.070829     -0.894091     -0.530396
H	1.776081     0.852943     -0.625454
C	-0.013462     -0.340058     -0.434628
H	-0.292462     -1.311290     -0.002877
H	-0.144700     -0.420469     -1.520021
C	-0.955047     0.737664     0.108999
H	-0.821939     0.835007     1.194020
H	-0.709339     1.708237     -0.337268
O	1.602875     0.032742     1.288527
H	2.528258     0.229884     1.479198
O	-2.315452     0.490138     -0.234210
H	-2.593039     -0.303311     0.242019

