#p M062X/6-311++G(d,p)

SP

0 1
C	1.452996     -0.063753     -0.120991
H	2.080900     -0.839620     -0.586302
H	1.743766     0.902184     -0.566662
C	-0.013540     -0.346372     -0.420226
H	-0.281955     -1.307392     0.039290
H	-0.146208     -0.457632     -1.502883
C	-0.958571     0.745050     0.088107
H	-0.822795     0.881077     1.169362
H	-0.716163     1.699615     -0.393038
O	1.622123     -0.046209     1.294613
H	2.539558     0.185638     1.484993
O	-2.319027     0.483702     -0.242642
H	-2.593459     -0.294996     0.259112

